NAME : traveling-santa-2018-prime-paths.29436.tour
COMMENT : Length = 29436
COMMENT : Found by LKH [Keld Helsgaun] Sun Jun 12 19:59:18 2022
TYPE : TOUR
DIMENSION : 100
TOUR_SECTION
1
9
51
79
82
5
61
10
76
81
96
75
27
31
13
66
95
23
32
2
68
25
45
37
14
60
64
39
47
21
77
86
42
17
72
52
59
88
48
34
6
57
44
78
55
56
94
33
24
29
98
49
22
84
67
74
46
62
58
85
100
26
41
43
80
15
97
3
93
87
35
83
53
28
92
63
19
90
69
18
91
36
4
8
38
73
99
12
71
50
70
40
54
30
7
65
11
89
16
20
-1
EOF
